40
1 0 57
2 0 23
2 1 40
3 0 41
3 1 47
3 2 59
4 0 45
4 1 9
4 2 8
4 3 25
5 0 46
5 1 58
5 2 26
5 3 46
5 4 42
6 0 31
6 1 56
6 2 54
6 3 49
6 4 10
6 5 24
7 0 28
7 1 39
7 2 41
7 3 15
7 4 44
7 5 29
7 6 56
8 0 42
8 1 16
8 2 30
8 3 32
8 4 28
8 5 6
8 6 43
8 7 43
9 0 54
9 1 6
9 2 32
9 3 41
9 4 60
9 5 33
9 6 22
9 7 8
9 8 20
10 0 6
10 1 39
10 2 52
10 3 53
10 4 38
10 5 29
10 6 21
10 7 33
10 8 49
10 9 19
11 0 55
11 1 39
11 2 13
11 3 43
11 4 58
11 5 33
11 6 22
11 7 2
11 8 11
11 9 31
11 10 11
12 0 27
12 1 47
12 2 19
12 3 21
12 4 46
12 5 14
12 6 56
12 7 1
12 8 59
12 9 3
12 10 60
12 11 37
13 0 31
13 1 21
13 2 8
13 3 37
13 4 23
13 5 43
13 6 36
13 7 48
13 8 3
13 9 6
13 10 16
13 11 1
13 12 31
14 0 5
14 1 9
14 2 51
14 3 55
14 4 42
14 5 33
14 6 25
14 7 43
14 8 27
14 9 20
14 10 12
14 11 18
14 12 32
14 13 54
15 0 60
15 1 31
15 2 8
15 3 53
15 4 55
15 5 23
15 6 26
15 7 38
15 8 14
15 9 11
15 10 37
15 11 7
15 12 34
15 13 32
15 14 8
16 0 37
16 1 45
16 2 14
16 3 57
16 4 25
16 5 3
16 6 53
16 7 26
16 8 29
16 9 51
16 10 41
16 11 16
16 12 46
16 13 4
16 14 50
16 15 32
17 0 25
17 1 35
17 2 27
17 3 40
17 4 21
17 5 42
17 6 57
17 7 11
17 8 50
17 9 19
17 10 19
17 11 7
17 12 4
17 13 27
17 14 43
17 15 54
17 16 42
18 0 5
18 1 11
18 2 46
18 3 7
18 4 35
18 5 44
18 6 2
18 7 46
18 8 16
18 9 47
18 10 10
18 11 43
18 12 46
18 13 48
18 14 53
18 15 28
18 16 8
18 17 42
19 0 9
19 1 34
19 2 4
19 3 19
19 4 41
19 5 38
19 6 39
19 7 56
19 8 23
19 9 40
19 10 19
19 11 43
19 12 40
19 13 56
19 14 11
19 15 40
19 16 39
19 17 50
19 18 43
20 0 10
20 1 55
20 2 13
20 3 32
20 4 37
20 5 52
20 6 31
20 7 52
20 8 16
20 9 20
20 10 22
20 11 44
20 12 37
20 13 41
20 14 27
20 15 5
20 16 60
20 17 31
20 18 14
20 19 18
21 0 47
21 1 2
21 2 22
21 3 3
21 4 47
21 5 30
21 6 3
21 7 9
21 8 45
21 9 7
21 10 45
21 11 49
21 12 43
21 13 36
21 14 55
21 15 1
21 16 48
21 17 16
21 18 42
21 19 8
21 20 51
22 0 7
22 1 43
22 2 35
22 3 49
22 4 28
22 5 30
22 6 2
22 7 47
22 8 1
22 9 5
22 10 3
22 11 6
22 12 36
22 13 42
22 14 54
22 15 9
22 16 38
22 17 59
22 18 22
22 19 19
22 20 20
22 21 42
23 0 46
23 1 38
23 2 10
23 3 10
23 4 60
23 5 58
23 6 51
23 7 46
23 8 55
23 9 39
23 10 20
23 11 15
23 12 23
23 13 5
23 14 5
23 15 47
23 16 55
23 17 35
23 18 51
23 19 47
23 20 47
23 21 37
23 22 53
24 0 13
24 1 56
24 2 57
24 3 56
24 4 46
24 5 57
24 6 51
24 7 42
24 8 57
24 9 17
24 10 47
24 11 39
24 12 20
24 13 5
24 14 35
24 15 8
24 16 17
24 17 34
24 18 4
24 19 26
24 20 50
24 21 45
24 22 20
24 23 2
25 0 47
25 1 51
25 2 29
25 3 17
25 4 59
25 5 56
25 6 18
25 7 26
25 8 23
25 9 22
25 10 9
25 11 14
25 12 29
25 13 8
25 14 23
25 15 8
25 16 10
25 17 25
25 18 37
25 19 26
25 20 48
25 21 38
25 22 54
25 23 1
25 24 36
26 0 51
26 1 49
26 2 32
26 3 15
26 4 38
26 5 28
26 6 1
26 7 21
26 8 25
26 9 30
26 10 41
26 11 16
26 12 51
26 13 24
26 14 53
26 15 27
26 16 4
26 17 25
26 18 50
26 19 11
26 20 43
26 21 24
26 22 31
26 23 20
26 24 57
26 25 59
27 0 42
27 1 53
27 2 5
27 3 53
27 4 14
27 5 53
27 6 18
27 7 47
27 8 53
27 9 12
27 10 45
27 11 19
27 12 27
27 13 32
27 14 9
27 15 35
27 16 49
27 17 8
27 18 13
27 19 17
27 20 22
27 21 27
27 22 55
27 23 4
27 24 47
27 25 40
27 26 23
28 0 48
28 1 6
28 2 36
28 3 45
28 4 7
28 5 44
28 6 40
28 7 28
28 8 4
28 9 42
28 10 57
28 11 42
28 12 55
28 13 17
28 14 10
28 15 55
28 16 30
28 17 48
28 18 35
28 19 53
28 20 27
28 21 25
28 22 47
28 23 28
28 24 24
28 25 1
28 26 1
28 27 12
29 0 54
29 1 26
29 2 35
29 3 11
29 4 43
29 5 55
29 6 15
29 7 11
29 8 30
29 9 27
29 10 1
29 11 44
29 12 28
29 13 1
29 14 13
29 15 28
29 16 9
29 17 25
29 18 22
29 19 31
29 20 24
29 21 1
29 22 48
29 23 9
29 24 34
29 25 26
29 26 9
29 27 11
29 28 6
30 0 12
30 1 18
30 2 60
30 3 14
30 4 41
30 5 9
30 6 57
30 7 26
30 8 12
30 9 36
30 10 36
30 11 48
30 12 45
30 13 22
30 14 10
30 15 33
30 16 46
30 17 36
30 18 60
30 19 20
30 20 18
30 21 33
30 22 52
30 23 60
30 24 55
30 25 27
30 26 38
30 27 60
30 28 31
30 29 42
31 0 30
31 1 37
31 2 4
31 3 56
31 4 41
31 5 39
31 6 33
31 7 11
31 8 37
31 9 22
31 10 44
31 11 50
31 12 37
31 13 42
31 14 52
31 15 43
31 16 51
31 17 1
31 18 1
31 19 25
31 20 10
31 21 4
31 22 45
31 23 2
31 24 40
31 25 50
31 26 38
31 27 40
31 28 34
31 29 22
31 30 24
32 0 26
32 1 29
32 2 56
32 3 56
32 4 53
32 5 14
32 6 2
32 7 26
32 8 57
32 9 44
32 10 55
32 11 20
32 12 1
32 13 39
32 14 56
32 15 54
32 16 31
32 17 1
32 18 52
32 19 38
32 20 16
32 21 40
32 22 43
32 23 40
32 24 32
32 25 23
32 26 51
32 27 60
32 28 23
32 29 5
32 30 40
32 31 21
33 0 42
33 1 38
33 2 44
33 3 38
33 4 23
33 5 39
33 6 25
33 7 37
33 8 7
33 9 46
33 10 20
33 11 10
33 12 55
33 13 12
33 14 4
33 15 7
33 16 32
33 17 27
33 18 11
33 19 47
33 20 57
33 21 27
33 22 13
33 23 31
33 24 7
33 25 38
33 26 24
33 27 55
33 28 12
33 29 44
33 30 16
33 31 29
33 32 12
34 0 10
34 1 14
34 2 58
34 3 49
34 4 25
34 5 52
34 6 38
34 7 35
34 8 35
34 9 43
34 10 16
34 11 57
34 12 24
34 13 29
34 14 22
34 15 49
34 16 56
34 17 4
34 18 14
34 19 26
34 20 7
34 21 1
34 22 45
34 23 2
34 24 37
34 25 2
34 26 50
34 27 19
34 28 45
34 29 48
34 30 17
34 31 47
34 32 30
34 33 9
35 0 4
35 1 39
35 2 51
35 3 29
35 4 41
35 5 27
35 6 51
35 7 52
35 8 50
35 9 5
35 10 14
35 11 14
35 12 34
35 13 33
35 14 37
35 15 34
35 16 53
35 17 40
35 18 19
35 19 1
35 20 10
35 21 41
35 22 33
35 23 31
35 24 7
35 25 26
35 26 33
35 27 60
35 28 54
35 29 28
35 30 39
35 31 36
35 32 53
35 33 19
35 34 33
36 0 10
36 1 60
36 2 55
36 3 24
36 4 12
36 5 42
36 6 44
36 7 9
36 8 1
36 9 1
36 10 1
36 11 28
36 12 35
36 13 3
36 14 32
36 15 10
36 16 25
36 17 21
36 18 33
36 19 1
36 20 37
36 21 25
36 22 40
36 23 8
36 24 42
36 25 39
36 26 14
36 27 36
36 28 59
36 29 30
36 30 7
36 31 46
36 32 39
36 33 21
36 34 11
36 35 40
37 0 36
37 1 45
37 2 39
37 3 19
37 4 60
37 5 51
37 6 25
37 7 36
37 8 44
37 9 57
37 10 45
37 11 40
37 12 42
37 13 1
37 14 60
37 15 23
37 16 8
37 17 8
37 18 26
37 19 29
37 20 39
37 21 21
37 22 2
37 23 44
37 24 53
37 25 36
37 26 12
37 27 50
37 28 21
37 29 19
37 30 18
37 31 5
37 32 28
37 33 16
37 34 54
37 35 4
37 36 46
38 0 26
38 1 54
38 2 47
38 3 20
38 4 6
38 5 48
38 6 5
38 7 25
38 8 32
38 9 19
38 10 13
38 11 43
38 12 50
38 13 21
38 14 54
38 15 32
38 16 47
38 17 38
38 18 16
38 19 2
38 20 52
38 21 19
38 22 34
38 23 15
38 24 50
38 25 12
38 26 28
38 27 29
38 28 23
38 29 42
38 30 20
38 31 16
38 32 47
38 33 20
38 34 45
38 35 14
38 36 39
38 37 48
39 0 23
39 1 15
39 2 13
39 3 29
39 4 45
39 5 49
39 6 34
39 7 12
39 8 32
39 9 44
39 10 2
39 11 32
39 12 35
39 13 8
39 14 20
39 15 54
39 16 39
39 17 52
39 18 30
39 19 29
39 20 30
39 21 33
39 22 29
39 23 18
39 24 3
39 25 37
39 26 58
39 27 19
39 28 42
39 29 43
39 30 55
39 31 23
39 32 36
39 33 45
39 34 47
39 35 13
39 36 10
39 37 35
39 38 23
